\ Model Master Problem
\ LP format - for model browsing. Use MPS format to capture full model detail.
Minimize
  - 1.045 y[0] - q[0]
Subject To
 feasible_constr[0]: y[0] <= 1000
 feasible_constr[0]: y[0] <= 1000
 feasible_constr[0]: y[0] <= 1000
 feasible_constr[0]: y[0] <= 1000
 feasible_constr[0]: y[0] <= 1000
 feasible_constr[0]: y[0] <= 1000
 feasible_constr[0]: y[0] <= 1000
 feasible_constr[0]: y[0] <= 1000
 optimal_constr[0]: - 1.1 y[0] - q[0] <= -1100
 optimal_constr[0]: - 1.1 y[0] - q[0] <= -1100
 optimal_constr[0]: - 1.1 y[0] - q[0] <= -1100
 optimal_constr[0]: - 1.1 y[0] - q[0] <= -1100
 optimal_constr[0]: - 1.1 y[0] - q[0] <= -1100
 optimal_constr[0]: 1.1 y[0] - q[0] <= 1100
Bounds
 q[0] free
Generals
 y[0]
End
